; 
(set-info :status unknown)
(declare-fun node_0x7ffff1719d60 () (_ BitVec 1))
(declare-fun ccso_node_0x7ffff1725a30 () (_ BitVec 32))
(declare-fun ine_0x7ffff1726170 () (_ BitVec 1))
(declare-fun carg_node_0x7ffff1719290 () (_ BitVec 64))
(declare-fun carg_node_0x7ffff06e1b40_CS0x41415b8 () (_ BitVec 64))
(declare-fun carg_node_0x7ffff1719410 () (_ BitVec 64))
(declare-fun carg_node_0x7ffff06e1ce0_CS0x41415b8 () (_ BitVec 64))
(declare-fun node_0x7ffff1725460 () (_ BitVec 64))
(declare-fun carg_node_0x7ffff06e1940_CS0x41415b8 () (_ BitVec 64))
(declare-fun fsub_0x7ffff1725600 () (_ BitVec 64))
(declare-fun fmul_0x7ffff1725230 () (_ BitVec 64))
(declare-fun node_0x7ffff171bd60 () (_ BitVec 64))
(declare-fun node_0x7ffff171b9f0 () (_ BitVec 64))
(declare-fun node_0x7ffff1725090 () (_ BitVec 64))
(declare-fun node_0x7ffff1724cc0 () (_ BitVec 64))
(declare-fun fadd_0x7ffff1724e60 () (_ BitVec 64))
(declare-fun fmul_0x7ffff1724a90 () (_ BitVec 64))
(declare-fun node_0x7ffff17248f0 () (_ BitVec 64))
(declare-fun fmul_0x7ffff171bb70 () (_ BitVec 64))
(declare-fun carg_node_0x7ffff1718f90 () (_ BitVec 64))
(declare-fun node_0x7ffff1724560 () (_ BitVec 64))
(declare-fun fmul_0x7ffff1724700 () (_ BitVec 64))
(declare-fun node_0x7ffff1720d70 () (_ BitVec 64))
(declare-fun fsub_0x7ffff1720f10 () (_ BitVec 64))
(declare-fun carg_node_0x7ffff1718da0 () (_ BitVec 64))
(declare-fun node_0x7ffff1720900 () (_ BitVec 64))
(declare-fun LdMem_0x7ffff1720aa0 () (_ BitVec 64))
(declare-fun pcso_node_0x12246ac0 () (_ BitVec 64))
(declare-fun StMem_0x12246c70 () (_ BitVec 64))
(declare-fun R0x7ffff170ef50 () (_ BitVec 1))
(declare-fun node_0x7ffff1724190 () (_ BitVec 64))
(declare-fun fmul_0x7ffff1724330 () (_ BitVec 64))
(declare-fun fmul_0x7ffff171bf00 () (_ BitVec 64))
(declare-fun carg_node_0x7ffff1719110 () (_ BitVec 64))
(declare-fun node_0x7ffff1723e00 () (_ BitVec 64))
(declare-fun fmul_0x7ffff1723fa0 () (_ BitVec 64))
(declare-fun node_0x7ffff1720130 () (_ BitVec 64))
(declare-fun fsub_0x7ffff17202d0 () (_ BitVec 64))
(declare-fun carg_node_0x7ffff1718c00 () (_ BitVec 64))
(declare-fun node_0x7ffff171fce0 () (_ BitVec 64))
(declare-fun LdMem_0x7ffff171fe60 () (_ BitVec 64))
(declare-fun pcso_node_0x122466d0 () (_ BitVec 64))
(declare-fun StMem_0x12246880 () (_ BitVec 64))
(declare-fun node_0x7ffff1723a30 () (_ BitVec 64))
(declare-fun carg_node_0x7ffff06e17e0_CS0x41415b8 () (_ BitVec 64))
(declare-fun fmul_0x7ffff1723bd0 () (_ BitVec 64))
(declare-fun node_0x7ffff1723520 () (_ BitVec 64))
(declare-fun fadd_0x7ffff17236c0 () (_ BitVec 64))
(declare-fun fmul_0x7ffff17232f0 () (_ BitVec 64))
(declare-fun node_0x7ffff1723150 () (_ BitVec 64))
(declare-fun node_0x7ffff1722d80 () (_ BitVec 64))
(declare-fun fmul_0x7ffff1722f20 () (_ BitVec 64))
(declare-fun node_0x7ffff1722910 () (_ BitVec 64))
(declare-fun LdMem_0x7ffff171ddf0 () (_ BitVec 64))
(declare-fun pcso_node_0x12243850 () (_ BitVec 64))
(declare-fun StMem_0x12243a00 () (_ BitVec 64))
(declare-fun node_0x7ffff1722140 () (_ BitVec 64))
(declare-fun fmul_0x7ffff17222e0 () (_ BitVec 64))
(declare-fun node_0x7ffff1721960 () (_ BitVec 64))
(declare-fun fmul_0x7ffff1721f10 () (_ BitVec 64))
(declare-fun node_0x7ffff1721540 () (_ BitVec 64))
(declare-fun LdMem_0x7ffff171c590 () (_ BitVec 64))
(declare-fun pcso_node_0x12243460 () (_ BitVec 64))
(declare-fun StMem_0x12243610 () (_ BitVec 64))
(declare-fun node_0x7ffff171f2d0 () (_ BitVec 64))
(declare-fun carg_node_0x7ffff06e1570_CS0x41415b8 () (_ BitVec 64))
(declare-fun fadd_0x7ffff171f470 () (_ BitVec 64))
(declare-fun fmul_0x7ffff171f0a0 () (_ BitVec 64))
(declare-fun node_0x7ffff171ed20 () (_ BitVec 64))
(declare-fun node_0x7ffff171e950 () (_ BitVec 64))
(declare-fun fmul_0x7ffff171eaf0 () (_ BitVec 64))
(declare-fun node_0x7ffff171e4e0 () (_ BitVec 64))
(declare-fun node_0x7ffff171dc50 () (_ BitVec 64))
(declare-fun node_0x7ffff171d460 () (_ BitVec 64))
(declare-fun fmul_0x7ffff171d600 () (_ BitVec 64))
(declare-fun node_0x7ffff171d090 () (_ BitVec 64))
(declare-fun fmul_0x7ffff171d230 () (_ BitVec 64))
(declare-fun node_0x7ffff171cc20 () (_ BitVec 64))
(declare-fun node_0x7ffff171c410 () (_ BitVec 64))
(declare-fun return_node_0x7ffff06e1fc0_CS0x41415b8 () (_ BitVec 32))
(declare-fun node_0x12245750 () (_ BitVec 64))
(declare-fun parg_node_0x107ae020_CS0x413fcc8 () (_ BitVec 64))
(declare-fun LdMem_0x12245100 () (_ BitVec 64))
(declare-fun parg_node_0x12245420 () (_ BitVec 64))
(declare-fun StMem_0x12245270 () (_ BitVec 64))
(declare-fun node_0x107afe90_CS0x413fcc8 () (_ BitVec 64))
(declare-fun node_0x12245f80 () (_ BitVec 64))
(declare-fun parg_node_0x107ae730_CS0x413fcc8 () (_ BitVec 64))
(declare-fun LdMem_0x12245930 () (_ BitVec 64))
(declare-fun parg_node_0x12245c50 () (_ BitVec 64))
(declare-fun StMem_0x12245aa0 () (_ BitVec 64))
(declare-fun node_0x107b0280_CS0x413fcc8 () (_ BitVec 64))
(declare-fun node_0x12244770 () (_ BitVec 64))
(declare-fun parg_node_0x107b5aa0_CS0x413e918 () (_ BitVec 64))
(declare-fun LdMem_0x7cdc490 () (_ BitVec 64))
(declare-fun parg_node_0x7cd8e80 () (_ BitVec 64))
(declare-fun StMem_0x7ce4f50 () (_ BitVec 64))
(declare-fun node_0x107b7a50_CS0x413e918 () (_ BitVec 64))
(declare-fun node_0x12242cf0 () (_ BitVec 64))
(declare-fun parg_node_0x107b61b0_CS0x413e918 () (_ BitVec 64))
(declare-fun LdMem_0x12242760 () (_ BitVec 64))
(declare-fun parg_node_0x12242a40 () (_ BitVec 64))
(declare-fun StMem_0x122428d0 () (_ BitVec 64))
(declare-fun node_0x107b7d30_CS0x413e918 () (_ BitVec 64))
(declare-fun carg_node_0x7ffff17196a0 () (_ BitVec 64))
(assert
 (= node_0x7ffff1719d60 (_ bv1 1)))
(assert
 (let (($x104 (= ine_0x7ffff1726170 (ite (and (distinct ccso_node_0x7ffff1725a30 (_ bv0 32)) true) (_ bv1 1) (_ bv0 1)))))
 (and (= node_0x7ffff1719d60 ine_0x7ffff1726170) $x104)))
(assert
 (= carg_node_0x7ffff06e1b40_CS0x41415b8 carg_node_0x7ffff1719290))
(assert
 (= carg_node_0x7ffff06e1ce0_CS0x41415b8 carg_node_0x7ffff1719410))
(assert
 (= carg_node_0x7ffff06e1940_CS0x41415b8 node_0x7ffff1725460))
(assert
 (let (($x285 (= node_0x7ffff1725460 fsub_0x7ffff1725600)))
 (let (($x255 (or (or (= node_0x7ffff171b9f0 (_ bv0 64)) (= node_0x7ffff171bd60 (_ bv0 64))) (and (distinct fmul_0x7ffff1725230 (_ bv0 64)) true))))
 (let (($x252 (= fmul_0x7ffff1725230 (bvmul node_0x7ffff171b9f0 node_0x7ffff171bd60))))
 (let (($x256 (and $x252 $x255)))
 (let (($x552 (= node_0x7ffff1725090 fmul_0x7ffff1725230)))
 (let (($x123 (= fsub_0x7ffff1725600 (bvsub node_0x7ffff1724cc0 node_0x7ffff1725090))))
 (let (($x286 (= node_0x7ffff1724cc0 fadd_0x7ffff1724e60)))
 (let (($x577 (= node_0x7ffff17248f0 fmul_0x7ffff1724a90)))
 (let (($x244 (= carg_node_0x7ffff1718f90 (_ bv0 64))))
 (let ((?x242 (bvmul carg_node_0x7ffff1718f90 carg_node_0x7ffff1718f90)))
 (let (($x243 (= fmul_0x7ffff171bb70 ?x242)))
 (let (($x248 (and $x243 (or (or $x244 $x244) (and (distinct fmul_0x7ffff171bb70 (_ bv0 64)) true)))))
 (let (($x108 (= node_0x7ffff171b9f0 fmul_0x7ffff171bb70)))
 (let (($x214 (or (or (= node_0x7ffff1724560 (_ bv0 64)) (= node_0x7ffff171b9f0 (_ bv0 64))) (and (distinct fmul_0x7ffff1724a90 (_ bv0 64)) true))))
 (let ((?x208 (bvmul node_0x7ffff1724560 node_0x7ffff171b9f0)))
 (let (($x209 (= fmul_0x7ffff1724a90 ?x208)))
 (let (($x215 (and $x209 $x214)))
 (let (($x374 (= node_0x7ffff1724560 fmul_0x7ffff1724700)))
 (let (($x224 (or (or (= node_0x7ffff1720d70 (_ bv0 64)) (= node_0x7ffff1720d70 (_ bv0 64))) (and (distinct fmul_0x7ffff1724700 (_ bv0 64)) true))))
 (let ((?x219 (bvmul node_0x7ffff1720d70 node_0x7ffff1720d70)))
 (let (($x220 (= fmul_0x7ffff1724700 ?x219)))
 (let (($x225 (and $x220 $x224)))
 (let (($x598 (= node_0x7ffff1720d70 fsub_0x7ffff1720f10)))
 (let (($x231 (= fsub_0x7ffff1720f10 (bvsub node_0x7ffff1720900 carg_node_0x7ffff1718da0))))
 (let (($x604 (= node_0x7ffff1720900 LdMem_0x7ffff1720aa0)))
 (let (($x291 (= LdMem_0x7ffff1720aa0 StMem_0x12246c70)))
 (let ((?x128 (bvadd node_0x7ffff1724190 node_0x7ffff17248f0)))
 (let (($x129 (= fadd_0x7ffff1724e60 ?x128)))
 (let (($x397 (= node_0x7ffff1724190 fmul_0x7ffff1724330)))
 (let (($x199 (= carg_node_0x7ffff1719110 (_ bv0 64))))
 (let ((?x197 (bvmul carg_node_0x7ffff1719110 carg_node_0x7ffff1719110)))
 (let (($x198 (= fmul_0x7ffff171bf00 ?x197)))
 (let (($x203 (and $x198 (or (or $x199 $x199) (and (distinct fmul_0x7ffff171bf00 (_ bv0 64)) true)))))
 (let (($x546 (= node_0x7ffff171bd60 fmul_0x7ffff171bf00)))
 (let (($x140 (or (or (= node_0x7ffff1723e00 (_ bv0 64)) (= node_0x7ffff171bd60 (_ bv0 64))) (and (distinct fmul_0x7ffff1724330 (_ bv0 64)) true))))
 (let ((?x134 (bvmul node_0x7ffff1723e00 node_0x7ffff171bd60)))
 (let (($x135 (= fmul_0x7ffff1724330 ?x134)))
 (let (($x141 (and $x135 $x140)))
 (let (($x398 (= node_0x7ffff1723e00 fmul_0x7ffff1723fa0)))
 (let (($x150 (or (or (= node_0x7ffff1720130 (_ bv0 64)) (= node_0x7ffff1720130 (_ bv0 64))) (and (distinct fmul_0x7ffff1723fa0 (_ bv0 64)) true))))
 (let ((?x145 (bvmul node_0x7ffff1720130 node_0x7ffff1720130)))
 (let (($x146 (= fmul_0x7ffff1723fa0 ?x145)))
 (let (($x151 (and $x146 $x150)))
 (let (($x240 (= node_0x7ffff1720130 fsub_0x7ffff17202d0)))
 (let (($x157 (= fsub_0x7ffff17202d0 (bvsub node_0x7ffff171fce0 carg_node_0x7ffff1718c00))))
 (let (($x517 (= node_0x7ffff171fce0 LdMem_0x7ffff171fe60)))
 (let (($x468 (= LdMem_0x7ffff171fe60 StMem_0x12246880)))
 (and (or (not (= R0x7ffff170ef50 (_ bv1 1))) $x468) $x468 (= StMem_0x12246880 pcso_node_0x122466d0) $x517 $x157 $x240 $x151 $x398 $x141 $x546 $x203 $x397 $x129 (or (not (= R0x7ffff170ef50 (_ bv1 1))) $x291) $x291 (= StMem_0x12246c70 pcso_node_0x12246ac0) $x604 $x231 $x598 $x225 $x374 $x215 $x108 $x248 $x577 $x286 $x123 $x552 $x256 $x285)))))))))))))))))))))))))))))))))))))))))))))))))
(assert
 (= carg_node_0x7ffff06e17e0_CS0x41415b8 node_0x7ffff1723a30))
(assert
 (let (($x112 (= node_0x7ffff1723a30 fmul_0x7ffff1723bd0)))
 (let (($x312 (or (or (= (_ bv2 64) (_ bv0 64)) (= node_0x7ffff1723520 (_ bv0 64))) (and (distinct fmul_0x7ffff1723bd0 (_ bv0 64)) true))))
 (let (($x313 (and (= fmul_0x7ffff1723bd0 (bvmul (_ bv2 64) node_0x7ffff1723520)) $x312)))
 (let (($x301 (= node_0x7ffff1723520 fadd_0x7ffff17236c0)))
 (let (($x403 (= node_0x7ffff1723150 fmul_0x7ffff17232f0)))
 (let (($x355 (or (or (= node_0x7ffff1722d80 (_ bv0 64)) (= node_0x7ffff171b9f0 (_ bv0 64))) (and (distinct fmul_0x7ffff17232f0 (_ bv0 64)) true))))
 (let (($x351 (= fmul_0x7ffff17232f0 (bvmul node_0x7ffff1722d80 node_0x7ffff171b9f0))))
 (let (($x356 (and $x351 $x355)))
 (let (($x507 (= node_0x7ffff1722d80 fmul_0x7ffff1722f20)))
 (let (($x365 (or (or (= node_0x7ffff1722910 (_ bv0 64)) (= node_0x7ffff1720d70 (_ bv0 64))) (and (distinct fmul_0x7ffff1722f20 (_ bv0 64)) true))))
 (let (($x361 (= fmul_0x7ffff1722f20 (bvmul node_0x7ffff1722910 node_0x7ffff1720d70))))
 (let (($x366 (and $x361 $x365)))
 (let (($x492 (= node_0x7ffff1722910 LdMem_0x7ffff171ddf0)))
 (let (($x522 (= LdMem_0x7ffff171ddf0 StMem_0x12243a00)))
 (let ((?x318 (bvadd node_0x7ffff1722140 node_0x7ffff1723150)))
 (let (($x319 (= fadd_0x7ffff17236c0 ?x318)))
 (let (($x115 (= node_0x7ffff1722140 fmul_0x7ffff17222e0)))
 (let (($x328 (or (or (= node_0x7ffff1721960 (_ bv0 64)) (= node_0x7ffff171bd60 (_ bv0 64))) (and (distinct fmul_0x7ffff17222e0 (_ bv0 64)) true))))
 (let (($x324 (= fmul_0x7ffff17222e0 (bvmul node_0x7ffff1721960 node_0x7ffff171bd60))))
 (let (($x329 (and $x324 $x328)))
 (let (($x485 (= node_0x7ffff1721960 fmul_0x7ffff1721f10)))
 (let (($x338 (or (or (= node_0x7ffff1721540 (_ bv0 64)) (= node_0x7ffff1720130 (_ bv0 64))) (and (distinct fmul_0x7ffff1721f10 (_ bv0 64)) true))))
 (let (($x334 (= fmul_0x7ffff1721f10 (bvmul node_0x7ffff1721540 node_0x7ffff1720130))))
 (let (($x339 (and $x334 $x338)))
 (let (($x491 (= LdMem_0x7ffff171c590 StMem_0x12243610)))
 (and (or (not (= R0x7ffff170ef50 (_ bv1 1))) $x491) $x491 (= StMem_0x12243610 pcso_node_0x12243460) (= node_0x7ffff1721540 LdMem_0x7ffff171c590) $x339 $x485 $x329 $x115 $x319 (or (not (= R0x7ffff170ef50 (_ bv1 1))) $x522) $x522 (= StMem_0x12243a00 pcso_node_0x12243850) $x492 $x366 $x507 $x356 $x403 $x301 $x313 $x112)))))))))))))))))))))))))))
(assert
 (= carg_node_0x7ffff06e1570_CS0x41415b8 node_0x7ffff171f2d0))
(assert
 (let (($x373 (= node_0x7ffff171f2d0 fadd_0x7ffff171f470)))
 (let (($x482 (= node_0x7ffff171ed20 fmul_0x7ffff171f0a0)))
 (let (($x445 (or (or (= node_0x7ffff171e950 (_ bv0 64)) (= node_0x7ffff171b9f0 (_ bv0 64))) (and (distinct fmul_0x7ffff171f0a0 (_ bv0 64)) true))))
 (let (($x441 (= fmul_0x7ffff171f0a0 (bvmul node_0x7ffff171e950 node_0x7ffff171b9f0))))
 (let (($x446 (and $x441 $x445)))
 (let (($x380 (= node_0x7ffff171e950 fmul_0x7ffff171eaf0)))
 (let (($x457 (or (or (= node_0x7ffff171dc50 (_ bv0 64)) (= node_0x7ffff171e4e0 (_ bv0 64))) (and (distinct fmul_0x7ffff171eaf0 (_ bv0 64)) true))))
 (let (($x452 (= fmul_0x7ffff171eaf0 (bvmul node_0x7ffff171dc50 node_0x7ffff171e4e0))))
 (let (($x458 (and $x452 $x457)))
 (let ((?x411 (bvadd node_0x7ffff171d460 node_0x7ffff171ed20)))
 (let (($x412 (= fadd_0x7ffff171f470 ?x411)))
 (let (($x111 (= node_0x7ffff171d460 fmul_0x7ffff171d600)))
 (let (($x421 (or (or (= node_0x7ffff171d090 (_ bv0 64)) (= node_0x7ffff171bd60 (_ bv0 64))) (and (distinct fmul_0x7ffff171d600 (_ bv0 64)) true))))
 (let (($x417 (= fmul_0x7ffff171d600 (bvmul node_0x7ffff171d090 node_0x7ffff171bd60))))
 (let (($x422 (and $x417 $x421)))
 (let (($x436 (= node_0x7ffff171d090 fmul_0x7ffff171d230)))
 (let (($x433 (or (or (= node_0x7ffff171c410 (_ bv0 64)) (= node_0x7ffff171cc20 (_ bv0 64))) (and (distinct fmul_0x7ffff171d230 (_ bv0 64)) true))))
 (let (($x428 (= fmul_0x7ffff171d230 (bvmul node_0x7ffff171c410 node_0x7ffff171cc20))))
 (let (($x434 (and $x428 $x433)))
 (and $x434 (= node_0x7ffff171c410 LdMem_0x7ffff171c590) (= node_0x7ffff171cc20 LdMem_0x7ffff171c590) $x436 $x422 $x111 $x412 $x458 (= node_0x7ffff171dc50 LdMem_0x7ffff171ddf0) (= node_0x7ffff171e4e0 LdMem_0x7ffff171ddf0) $x380 $x446 $x482 $x373)))))))))))))))))))))
(assert
 (= return_node_0x7ffff06e1fc0_CS0x41415b8 ccso_node_0x7ffff1725a30))
(assert
 (= parg_node_0x107ae020_CS0x413fcc8 node_0x12245750))
(assert
 (let (($x526 (= node_0x12245750 LdMem_0x12245100)))
 (let (($x561 (= LdMem_0x12245100 StMem_0x12245270)))
 (and (or (not (= R0x7ffff170ef50 (_ bv1 1))) $x561) $x561 (= StMem_0x12245270 parg_node_0x12245420) $x526))))
(assert
 (= node_0x107afe90_CS0x413fcc8 pcso_node_0x122466d0))
(assert
 (= parg_node_0x107ae730_CS0x413fcc8 node_0x12245f80))
(assert
 (let (($x592 (= LdMem_0x12245930 StMem_0x12245aa0)))
 (and (or (not (= R0x7ffff170ef50 (_ bv1 1))) $x592) $x592 (= StMem_0x12245aa0 parg_node_0x12245c50) (= node_0x12245f80 LdMem_0x12245930))))
(assert
 (= node_0x107b0280_CS0x413fcc8 pcso_node_0x12246ac0))
(assert
 (= parg_node_0x107b5aa0_CS0x413e918 node_0x12244770))
(assert
 (let (($x400 (= LdMem_0x7cdc490 StMem_0x7ce4f50)))
 (and (or (not (= R0x7ffff170ef50 (_ bv1 1))) $x400) $x400 (= StMem_0x7ce4f50 parg_node_0x7cd8e80) (= node_0x12244770 LdMem_0x7cdc490))))
(assert
 (= node_0x107b7a50_CS0x413e918 pcso_node_0x12243460))
(assert
 (= parg_node_0x107b61b0_CS0x413e918 node_0x12242cf0))
(assert
 (let (($x494 (= LdMem_0x12242760 StMem_0x122428d0)))
 (and (or (not (= R0x7ffff170ef50 (_ bv1 1))) $x494) $x494 (= StMem_0x122428d0 parg_node_0x12242a40) (= node_0x12242cf0 LdMem_0x12242760))))
(assert
 (= node_0x107b7d30_CS0x413e918 pcso_node_0x12243850))
(assert
 (and (distinct carg_node_0x7ffff17196a0 (_ bv0 64)) true))
(minimize node_0x7ffff1724190)
(minimize pcso_node_0x122466d0)
(minimize node_0x12244770)
(minimize carg_node_0x7ffff1719410)
(minimize fsub_0x7ffff1720f10)
(minimize node_0x107b7d30_CS0x413e918)
(minimize node_0x7ffff1722d80)
(minimize parg_node_0x12245420)
(maximize node_0x7ffff1719d60)
(minimize ccso_node_0x7ffff1725a30)
(maximize parg_node_0x107ae730_CS0x413fcc8)
(maximize fmul_0x7ffff17232f0)
(maximize node_0x7ffff17248f0)
(maximize fmul_0x7ffff1723fa0)
(maximize fadd_0x7ffff17236c0)
(maximize StMem_0x12246c70)
(maximize StMem_0x122428d0)
(minimize R0x7ffff170ef50)
(minimize node_0x12245f80)
(maximize node_0x7ffff1721960)
(maximize LdMem_0x12245930)
(minimize fmul_0x7ffff1725230)
(minimize node_0x7ffff17248f0)
(minimize LdMem_0x7ffff171ddf0)
(minimize node_0x7ffff1724560)
(maximize node_0x7ffff1724190)
(minimize parg_node_0x7cd8e80)
(minimize fmul_0x7ffff1722f20)
(maximize parg_node_0x107b61b0_CS0x413e918)
(minimize node_0x7ffff171ed20)
(minimize fmul_0x7ffff1724330)
(maximize pcso_node_0x12243850)
(maximize node_0x7ffff171ed20)
(maximize R0x7ffff170ef50)
(minimize StMem_0x12243a00)
(maximize node_0x7ffff1723150)
(minimize carg_node_0x7ffff1718c00)
(maximize fmul_0x7ffff1723bd0)
(maximize node_0x107afe90_CS0x413fcc8)
(minimize node_0x7ffff171e4e0)
(maximize node_0x7ffff1725460)
(maximize fadd_0x7ffff171f470)
(minimize node_0x12242cf0)
(maximize LdMem_0x7ffff1720aa0)
(minimize fmul_0x7ffff17232f0)
(maximize node_0x7ffff171b9f0)
(maximize fadd_0x7ffff1724e60)
(maximize node_0x7ffff171fce0)
(maximize node_0x7ffff1723520)
(maximize node_0x7ffff1723e00)
(maximize parg_node_0x7cd8e80)
(maximize StMem_0x12246880)
(maximize StMem_0x12245aa0)
(maximize carg_node_0x7ffff17196a0)
(minimize node_0x7ffff1724cc0)
(minimize pcso_node_0x12246ac0)
(maximize node_0x7ffff171c410)
(minimize fmul_0x7ffff1721f10)
(maximize node_0x7ffff171f2d0)
(minimize carg_node_0x7ffff06e1940_CS0x41415b8)
(maximize fmul_0x7ffff171eaf0)
(minimize carg_node_0x7ffff1719290)
(minimize LdMem_0x7cdc490)
(minimize node_0x7ffff1725460)
(check-sat)
(get-objectives)
